(set-option :produce-proofs true)
(set-logic AUFLIA)
(declare-sort U 0)
(declare-fun P ( U) Bool)
(declare-fun Q ( U U) Bool)
(declare-fun a () U)
(declare-fun b () U)
(assert (! (and (P a) (not (Q a b))) :named IP_0))
(assert (! (forall ((x U)) (= (P x) (forall ((y U)) (Q x y)))) :named IP_1))
(check-sat)
(get-interpolants IP_0 IP_1)
(exit)
